2
1000 4
46
150 1 4
151 1 1
152 1 2
153 1 2
154 1 1
155 1 2
156 1 3
157 1 3
158 1 3
159 1 2
160 1 1
161 1 1
162 1 1
163 1 2
165 1 1
166 1 3
167 1 7
168 1 2
169 1 2
170 1 2
171 1 4
173 1 3
175 1 4
176 1 1
177 1 2
178 1 2
179 1 2
180 1 2
181 1 1
182 1 4
183 1 3
184 1 2
185 1 1
186 1 3
187 1 2
188 1 6
189 1 3
190 1 5
191 1 5
192 1 2
193 1 3
194 1 5
195 1 3
197 1 1
198 1 5
200 1 1
